DATASET = "thpack6";
INSTANCE = "063";

WIDTH = 233;
HEIGHT = 220;
LENGTH = 587;

NO_OF_SHAPES = 15;
size = [|
  82,76,59 |
  60,51,50 |
  104,66,61 |
  71,36,28 |
  89,77,26 |
  108,84,66 |
  90,51,45 |
  48,35,33 |
  89,57,52 |
  99,77,58 |
  92,86,66 |
  93,80,46 |
  72,45,39 |
  73,46,24 |
  112,71,37 |
|];

verticality = [|
  1,1,1 |
  1,1,1 |
  1,1,1 |
  0,1,1 |
  0,0,1 |
  1,1,1 |
  0,1,1 |
  1,1,1 |
  1,1,1 |
  1,1,1 |
  1,1,1 |
  0,1,1 |
  1,1,1 |
  0,1,1 |
  0,1,1 |
|];

box_count = [
  6,
  12,
  6,
  4,
  8,
  4,
  6,
  7,
  14,
  8,
  7,
  7,
  3,
  11,
  11,
];
